NAME: line_37_5
TYPE: TSP
COMMENT: srandom_37_5
DIMENSION: 37
EDGE_WEIGHT_TYPE: EUC_2D
NODE_COORD_SECTION
1 4213 3034
2 3046 818
3 4042 4596
4 1016 3246
5 3941 1136
6 3809 263
7 1603 4246
8 4823 2303
9 4478 3681
10 2886 2786
11 726 875
12 1327 1987
13 1537 908
14 3959 3784
15 3551 889
16 4967 180
17 2234 3289
18 4867 2363
19 3992 1067
20 2608 4698
21 1329 4646
22 2684 3053
23 392 3868
24 4705 1393
25 3005 3314
26 4344 4018
27 4498 4283
28 4144 2312
29 2552 2025
30 4891 3779
31 4896 528
32 3977 2925
33 1242 1968
34 331 4328
35 2964 1350
36 3797 3831
37 3779 162
